0000000000000000
0000000000000000
0000000000000000
0000000000000000
0000000000000000
0000000000000000
0000000000000000
0000000000000000
0000000000000000
1111111111110000
1111111111110000
0000000001110000
0000000001110000
0000000001110000
1111111111110000
1111111111110000